letting initialStacks = [41, 38, 47, 35, 20, 8, 45, 40, 19, 51, 21, 3, 30, 22, 4, 36, 28, 7, 9, 1, 23, 49, 2, 42, 31, 50, 27, 25, 17, 32, 37, 16, 15, 13, 24, 12, 33, 14, 6, 11, 18, 48, 39, 29, 34, 44, 43, 5, 26, 10, 46]
